logs/full/max/full-06-30-2.sol
# Objective value = 15
x0,1_6 0
x0,1_13 0
x0,1_18 0
x0,1_19 1
x0,1_25 0
x0,1_29 0
x0,1_37 0
x0,1_38 0
x0,1_42 0
x0,1_43 0
x0,1_48 0
x0,1_56 0
x0,1_67 0
x0,1_85 0
x0,2_6 0
x0,2_13 0
x0,2_18 0
x0,2_19 0
x0,2_25 0
x0,2_29 0
x0,2_37 0
x0,2_38 0
x0,2_42 0
x0,2_43 0
x0,2_48 0
x0,2_56 0
x0,2_67 0
x0,2_85 0
x0,3_6 0
x0,3_13 0
x0,3_18 0
x0,3_19 0
x0,3_25 0
x0,3_29 0
x0,3_37 0
x0,3_38 0
x0,3_42 1
x0,3_43 0
x0,3_48 0
x0,3_56 0
x0,3_67 0
x0,3_85 0
x0,4_6 0
x0,4_13 0
x0,4_18 0
x0,4_19 0
x0,4_25 0
x0,4_29 0
x0,4_37 0
x0,4_38 0
x0,4_42 0
x0,4_43 0
x0,4_48 1
x0,4_56 0
x0,4_67 0
x0,4_85 0
x0,5_6 0
x0,5_13 0
x0,5_18 0
x0,5_19 0
x0,5_25 0
x0,5_29 0
x0,5_37 0
x0,5_38 0
x0,5_42 0
x0,5_43 0
x0,5_48 0
x0,5_56 0
x0,5_67 1
x0,5_85 0
x0,6_6 0
x0,6_13 0
x0,6_18 0
x0,6_19 0
x0,6_25 0
x0,6_29 0
x0,6_37 0
x0,6_38 0
x0,6_42 0
x0,6_43 0
x0,6_48 0
x0,6_56 0
x0,6_67 0
x0,6_85 1
x1,2_6 0
x1,2_13 0
x1,2_18 0
x1,2_19 0
x1,2_25 0
x1,2_29 0
x1,2_37 0
x1,2_38 0
x1,2_42 0
x1,2_43 0
x1,2_48 0
x1,2_56 0
x1,2_67 0
x1,2_85 0
x1,3_6 0
x1,3_13 0
x1,3_18 0
x1,3_19 0
x1,3_25 0
x1,3_29 0
x1,3_37 0
x1,3_38 0
x1,3_42 0
x1,3_43 0
x1,3_48 0
x1,3_56 0
x1,3_67 0
x1,3_85 0
x1,4_6 0
x1,4_13 0
x1,4_18 0
x1,4_19 0
x1,4_25 0
x1,4_29 1
x1,4_37 0
x1,4_38 0
x1,4_42 0
x1,4_43 0
x1,4_48 0
x1,4_56 0
x1,4_67 0
x1,4_85 0
x1,5_6 0
x1,5_13 0
x1,5_18 0
x1,5_19 0
x1,5_25 0
x1,5_29 0
x1,5_37 0
x1,5_38 0
x1,5_42 0
x1,5_43 0
x1,5_48 0
x1,5_56 0
x1,5_67 0
x1,5_85 0
x1,6_6 0
x1,6_13 0
x1,6_18 0
x1,6_19 0
x1,6_25 0
x1,6_29 0
x1,6_37 0
x1,6_38 0
x1,6_42 0
x1,6_43 0
x1,6_48 0
x1,6_56 0
x1,6_67 0
x1,6_85 0
x2,3_6 0
x2,3_13 1
x2,3_18 0
x2,3_19 0
x2,3_25 0
x2,3_29 0
x2,3_37 0
x2,3_38 0
x2,3_42 0
x2,3_43 0
x2,3_48 0
x2,3_56 0
x2,3_67 0
x2,3_85 0
x2,4_6 0
x2,4_13 0
x2,4_18 0
x2,4_19 1
x2,4_25 0
x2,4_29 0
x2,4_37 0
x2,4_38 0
x2,4_42 0
x2,4_43 0
x2,4_48 0
x2,4_56 0
x2,4_67 0
x2,4_85 0
x2,5_6 0
x2,5_13 0
x2,5_18 0
x2,5_19 0
x2,5_25 0
x2,5_29 0
x2,5_37 0
x2,5_38 1
x2,5_42 0
x2,5_43 0
x2,5_48 0
x2,5_56 0
x2,5_67 0
x2,5_85 0
x2,6_6 0
x2,6_13 0
x2,6_18 0
x2,6_19 0
x2,6_25 0
x2,6_29 0
x2,6_37 0
x2,6_38 0
x2,6_42 0
x2,6_43 0
x2,6_48 0
x2,6_56 1
x2,6_67 0
x2,6_85 0
x3,4_6 1
x3,4_13 0
x3,4_18 0
x3,4_19 0
x3,4_25 0
x3,4_29 0
x3,4_37 0
x3,4_38 0
x3,4_42 0
x3,4_43 0
x3,4_48 0
x3,4_56 0
x3,4_67 0
x3,4_85 0
x3,5_6 0
x3,5_13 0
x3,5_18 0
x3,5_19 0
x3,5_25 1
x3,5_29 0
x3,5_37 0
x3,5_38 0
x3,5_42 0
x3,5_43 0
x3,5_48 0
x3,5_56 0
x3,5_67 0
x3,5_85 0
x3,6_6 0
x3,6_13 0
x3,6_18 0
x3,6_19 0
x3,6_25 0
x3,6_29 0
x3,6_37 0
x3,6_38 0
x3,6_42 0
x3,6_43 1
x3,6_48 0
x3,6_56 0
x3,6_67 0
x3,6_85 0
x4,5_6 0
x4,5_13 0
x4,5_18 0
x4,5_19 0
x4,5_25 0
x4,5_29 0
x4,5_37 0
x4,5_38 0
x4,5_42 0
x4,5_43 0
x4,5_48 0
x4,5_56 0
x4,5_67 0
x4,5_85 0
x4,6_6 0
x4,6_13 0
x4,6_18 0
x4,6_19 0
x4,6_25 0
x4,6_29 0
x4,6_37 1
x4,6_38 0
x4,6_42 0
x4,6_43 0
x4,6_48 0
x4,6_56 0
x4,6_67 0
x4,6_85 0
x5,6_6 0
x5,6_13 0
x5,6_18 1
x5,6_19 0
x5,6_25 0
x5,6_29 0
x5,6_37 0
x5,6_38 0
x5,6_42 0
x5,6_43 0
x5,6_48 0
x5,6_56 0
x5,6_67 0
x5,6_85 0
p0 0
p1 19
p2 29
p3 42
p4 48
p5 67
p6 85
